PARAMETER_FILE = even/even_uncomplete_graph_new/nei/par/random45.par
PROBLEM_FILE = even/even_uncomplete_graph_new/nei/mat/random45.tsp
Successes/Runs = 0/10
Cost.min = 526, Cost.avg = 526.00, Cost.max = 526
Gap.min = 0.0000%, Gap.avg = 0.0000%, Gap.max = 0.0000%
Trials.min = 1000, Trials.avg = 1000.0, Trials.max = 1000
Time.min = 0.01 sec., Time.avg = 0.01 sec., Time.max = 0.01 sec.
Time.total = 0.13 sec.
请按任意键继续. . . 
